original problem has 26871 variables (13300 bin, 0 int, 0 impl, 13571 cont) and 53467 constraints
1/1 feasible solution given by solution candidate storage, new primal bound -4.100000e+01

presolving:
(round 1, fast)       6 del vars, 6 del conss, 0 add conss, 13305 chg bounds, 0 chg sides, 0 chg coeffs, 0 upgd conss, 0 impls, 0 clqs
(round 2, fast)       18 del vars, 135 del conss, 0 add conss, 13782 chg bounds, 13294 chg sides, 13294 chg coeffs, 0 upgd conss, 111 impls, 0 clqs
(round 3, fast)       18 del vars, 324 del conss, 0 add conss, 13782 chg bounds, 13294 chg sides, 13294 chg coeffs, 0 upgd conss, 294 impls, 0 clqs
   (0.3s) running MILP presolver
   (0.8s) MILP presolver (4 rounds): 277 aggregations, 294 fixings, 173 bound changes
(round 4, medium)     589 del vars, 324 del conss, 0 add conss, 13955 chg bounds, 13294 chg sides, 13294 chg coeffs, 0 upgd conss, 294 impls, 0 clqs
(round 5, fast)       606 del vars, 912 del conss, 0 add conss, 13955 chg bounds, 13294 chg sides, 13294 chg coeffs, 0 upgd conss, 294 impls, 0 clqs
(round 6, exhaustive) 606 del vars, 912 del conss, 0 add conss, 13955 chg bounds, 13311 chg sides, 13294 chg coeffs, 260 upgd conss, 294 impls, 0 clqs
   (1.1s) sparsify finished: 16/196175 (0.0%) nonzeros canceled - in total 16 canceled nonzeros, 40 changed coefficients, 0 added nonzeros
   (1.1s) probing: 51/13000 (0.4%) - 0 fixings, 0 aggregations, 0 implications, 0 bound changes
   (1.1s) probing aborted: 50/50 successive totally useless probings
presolving (7 rounds: 7 fast, 3 medium, 2 exhaustive):
 606 deleted vars, 912 deleted constraints, 0 added constraints, 13955 tightened bounds, 0 added holes, 13311 changed sides, 13334 changed coefficients
 294 implications, 0 cliques
presolved problem has 26265 variables (13000 bin, 0 int, 0 impl, 13265 cont) and 52555 constraints
  52295 constraints of type <linear>
    260 constraints of type <logicor>
transformed objective value is always integral (scale: 1)
Presolving Time: 1.00
transformed 1/1 original solutions to the transformed problem space

 time | node  | left  |LP iter|LP it/n|mem/heur|mdpt |vars |cons |rows |cuts |sepa|confs|strbr|  dualbound   | primalbound  |  gap   | compl. 
 18.9s|     1 |     0 | 14303 |     - |   206M |   0 |  26k|  52k|  52k|   0 |  0 |   0 |   0 |-2.637134e+02 |-4.100000e+01 | 543.20%| unknown
 18.9s|     1 |     2 | 14303 |     - |   206M |   0 |  26k|  52k|  52k|   0 |  1 |   0 |   0 |-2.637134e+02 |-4.100000e+01 | 543.20%| unknown

SCIP Status        : solving was interrupted [node limit reached]
Solving Time (sec) : 18.89
Solving Nodes      : 1
Primal Bound       : -4.10000000000000e+01 (1 solutions)
Dual Bound         : -2.63713402446595e+02
Gap                : 543.20 %
wrote problem to file /mnt/lscratch/users/dferrario/Adaptive-Cutsel-MILP/TransformedInstances/app1-2__trans__seed__1.mps
